1611714
0 23 54636
23 11 443848
11 7 61690
7 26 98591
26 2 4945
2 6 5029
6 9 141065
9 16 52694
16 22 79298
22 20 92634
20 14 19591
14 5 10550
5 1 7286
1 29 6204
29 27 11025
27 3 9482
3 17 7922
17 4 5422
4 12 6994
12 24 1644
24 8 14389
8 13 29026
13 25 12452
25 21 11584
21 18 8375
18 10 13721
10 15 17050
15 28 55904
28 19 137842
19 0 190821
